lbl,CUST NO.,READY TIME,XCOORD.,YCOORD.,DEMAND,DUE DATE,SERVICE TIME
25,290,89,20,113,22,99,10
25,266,93,7,108,32,103,10
25,64,122,11,118,33,132,10
25,158,218,8,89,13,228,10
25,197,300,23,123,15,310,10
25,253,343,12,113,2,353,10
25,219,371,7,119,30,381,10
25,38,373,5,122,15,383,10
25,153,387,9,122,17,397,10
25,96,569,6,120,25,579,10
25,191,577,3,101,33,587,10
